NAME: Christofides-9
BEST_KNOWN: 1162.55
COMMENT: 1162.550000
DIMENSION: 151
CAPACITY: 200
DISTANCE: 200
SERVICE_TIME: 10.000
EDGE_WEIGHT_FORMAT: FUNCTION
EDGE_WEIGHT_TYPE: EXACT_2D
NODE_COORD_SECTION
1 0.00000 0.00000
2 2.00000 17.00000
3 14.00000 14.00000
4 17.00000 29.00000
5 -15.00000 -9.00000
6 5.00000 -5.00000
7 -14.00000 12.00000
8 -18.00000 28.00000
9 -4.00000 27.00000
10 17.00000 -2.00000
11 16.00000 -14.00000
12 7.00000 6.00000
13 -4.00000 -3.00000
14 -30.00000 -10.00000
15 -23.00000 7.00000
16 1.00000 -19.00000
17 17.00000 6.00000
18 -8.00000 -12.00000
19 -18.00000 -2.00000
20 -22.00000 -22.00000
21 22.00000 23.00000
22 27.00000 7.00000
23 7.00000 22.00000
24 -19.00000 22.00000
25 -27.00000 17.00000
26 -28.00000 3.00000
27 -8.00000 33.00000
28 -5.00000 13.00000
29 8.00000 32.00000
30 23.00000 13.00000
31 23.00000 -8.00000
32 2.00000 34.00000
33 3.00000 11.00000
34 11.00000 -25.00000
35 26.00000 -2.00000
36 27.00000 28.00000
37 28.00000 34.00000
38 -3.00000 -13.00000
39 10.00000 0.00000
40 24.00000 -20.00000
41 -30.00000 -29.00000
42 -25.00000 -18.00000
43 -14.00000 -25.00000
44 -30.00000 29.00000
45 -5.00000 -20.00000
46 4.00000 -25.00000
47 -3.00000 4.00000
48 -10.00000 -3.00000
49 -10.00000 20.00000
50 13.00000 -7.00000
51 21.00000 2.00000
52 6.00000 14.00000
53 0.00000 -18.00000
54 20.00000 10.00000
55 20.00000 -15.00000
56 -20.00000 -5.00000
57 -10.00000 -5.00000
58 -15.00000 15.00000
59 -25.00000 8.00000
60 20.00000 25.00000
61 -5.00000 25.00000
62 -15.00000 30.00000
63 15.00000 0.00000
64 -5.00000 -10.00000
65 -20.00000 -25.00000
66 -5.00000 -30.00000
67 -25.00000 -15.00000
68 -30.00000 -5.00000
69 -15.00000 5.00000
70 -20.00000 25.00000
71 10.00000 30.00000
72 10.00000 -15.00000
73 10.00000 -25.00000
74 20.00000 -30.00000
75 30.00000 0.00000
76 30.00000 -15.00000
77 10.00000 -5.00000
78 0.00000 5.00000
79 6.00000 2.00000
80 29.00000 7.00000
81 5.00000 25.00000
82 -4.00000 17.00000
83 0.00000 34.00000
84 18.00000 17.00000
85 30.00000 20.00000
86 28.00000 30.00000
87 -33.00000 25.00000
88 -15.00000 -15.00000
89 -30.00000 -30.00000
90 25.00000 -23.00000
91 5.00000 -10.00000
92 7.00000 -28.00000
93 -11.00000 -23.00000
94 -12.00000 -32.00000
95 -24.00000 -21.00000
96 -29.00000 3.00000
97 -33.00000 13.00000
98 -27.00000 21.00000
99 -22.00000 17.00000
100 -29.00000 33.00000
101 12.00000 12.00000
102 14.00000 23.00000
103 -8.00000 8.00000
104 2.00000 -4.00000
105 22.00000 -6.00000
106 28.00000 -12.00000
107 18.00000 -23.00000
108 -3.00000 -23.00000
109 1.00000 -9.00000
110 -14.00000 -11.00000
111 -18.00000 -1.00000
112 -23.00000 -11.00000
113 -11.00000 23.00000
114 -8.00000 34.00000
115 -20.00000 42.00000
116 27.00000 42.00000
117 14.00000 38.00000
118 32.00000 -30.00000
119 21.00000 4.00000
120 2.00000 12.00000
121 2.00000 21.00000
122 22.00000 33.00000
123 12.00000 -19.00000
124 9.00000 -18.00000
125 11.00000 -22.00000
126 14.00000 -24.00000
127 14.00000 7.00000
128 18.00000 8.00000
129 26.00000 17.00000
130 22.00000 13.00000
131 21.00000 2.00000
132 20.00000 19.00000
133 -20.00000 12.00000
134 -21.00000 2.00000
135 -24.00000 -4.00000
136 -19.00000 -13.00000
137 -31.00000 -17.00000
138 -7.00000 -17.00000
139 -9.00000 17.00000
140 -9.00000 0.00000
141 -4.00000 32.00000
142 -20.00000 -16.00000
143 -13.00000 -13.00000
144 -17.00000 -11.00000
145 -9.00000 -8.00000
146 -10.00000 -11.00000
147 -13.00000 -8.00000
148 -10.00000 -14.00000
149 -16.00000 -14.00000
150 -15.00000 -9.00000
151 -17.00000 -17.00000
DEMAND_SECTION
1 0
2 7
3 30
4 16
5 9
6 21
7 15
8 19
9 23
10 11
11 5
12 19
13 29
14 23
15 21
16 10
17 15
18 3
19 41
20 9
21 28
22 8
23 8
24 16
25 10
26 28
27 7
28 15
29 14
30 6
31 19
32 11
33 12
34 23
35 26
36 17
37 6
38 9
39 15
40 14
41 7
42 27
43 13
44 11
45 16
46 10
47 5
48 25
49 17
50 18
51 10
52 10
53 7
54 13
55 19
56 26
57 3
58 5
59 9
60 16
61 16
62 12
63 19
64 23
65 20
66 8
67 19
68 2
69 12
70 17
71 9
72 11
73 18
74 29
75 3
76 6
77 17
78 16
79 16
80 9
81 21
82 27
83 23
84 11
85 14
86 8
87 5
88 8
89 16
90 31
91 9
92 5
93 5
94 7
95 18
96 16
97 1
98 27
99 36
100 30
101 13
102 10
103 9
104 14
105 18
106 2
107 6
108 7
109 18
110 28
111 3
112 13
113 19
114 10
115 9
116 20
117 25
118 25
119 36
120 6
121 5
122 15
123 25
124 9
125 8
126 18
127 13
128 14
129 3
130 23
131 6
132 26
133 16
134 11
135 7
136 41
137 35
138 26
139 9
140 15
141 3
142 1
143 2
144 22
145 27
146 20
147 11
148 12
149 10
150 9
151 17
DEPOT_SECTION
1
-1
EOF
